
;this file is automatically generated: Sun Oct 25 10:43:47 CST 2020

;declarations generated

(declare-fun oclExcludes ( Int Int) Bool)
(declare-fun Cardinality ( Int) Int)
(declare-fun oclSelect ( Int Bool) Int)
(declare-fun type_350280f7_a8bd_43c5_a048_932b55b2f689_Class17 ( Int) Bool)
(declare-fun type_350280f7_a8bd_43c5_a048_932b55b2f689_Class18 ( Int) Bool)
(declare-fun type_350280f7_a8bd_43c5_a048_932b55b2f689_Class19 ( Int) Bool)
(declare-fun obj_ba7b91c6_3380_4dec_8e7e_a779257f9ddb ( Int) Int)
(declare-fun Enum0 ( Int) Int)
(declare-fun Enum1 ( Int) Int)
(declare-fun container_ ( Int) Int)
(declare-fun oclIncludes ( Int Int) Bool)
(declare-fun ObjAt ( Int Int) Int)

;formula(s) generated
(assert (forall ((p Int)) (=> ( type_350280f7_a8bd_43c5_a048_932b55b2f689_Class17 p )  (and (>= ( Enum0 ( obj_ba7b91c6_3380_4dec_8e7e_a779257f9ddb p )  )  0) (<= ( Enum0 ( obj_ba7b91c6_3380_4dec_8e7e_a779257f9ddb p )  )  3)))))
(assert (! (exists ((c1 Int)) (and (and (and ( type_350280f7_a8bd_43c5_a048_932b55b2f689_Class17 c1 )  ( type_350280f7_a8bd_43c5_a048_932b55b2f689_Class18 c1 ) ) ( type_350280f7_a8bd_43c5_a048_932b55b2f689_Class19 c1 ) ) (not (= ( Enum0 ( obj_ba7b91c6_3380_4dec_8e7e_a779257f9ddb c1 )  )  0) ))):named l0))
(assert (! (forall ((v Int)) (=> (and (and ( type_350280f7_a8bd_43c5_a048_932b55b2f689_Class17 v )  ( type_350280f7_a8bd_43c5_a048_932b55b2f689_Class18 v ) ) ( type_350280f7_a8bd_43c5_a048_932b55b2f689_Class19 v ) ) (= ( Enum0 ( obj_ba7b91c6_3380_4dec_8e7e_a779257f9ddb v )  )  2))):named l1))
(assert (exists ((o Int)) (and (and ( type_350280f7_a8bd_43c5_a048_932b55b2f689_Class17 ( obj_ba7b91c6_3380_4dec_8e7e_a779257f9ddb o )  )  ( type_350280f7_a8bd_43c5_a048_932b55b2f689_Class18 ( obj_ba7b91c6_3380_4dec_8e7e_a779257f9ddb o )  ) ) ( type_350280f7_a8bd_43c5_a048_932b55b2f689_Class19 ( obj_ba7b91c6_3380_4dec_8e7e_a779257f9ddb o )  ) )))

 ;end of formula 